<?xml version = "1.0" encoding="UTF-8" standalone="yes"?>
<CPLEXSolution version="1.2">
 <header
   problemName="IloCplex"
   solutionName="p0"
   solutionIndex="-1"
   objectiveValue="-5962811282"
   solutionTypeValue="3"
   solutionTypeString="primal"
   solutionStatusValue="127"
   solutionStatusString="integer feasible solution"
   solutionMethodString="mip"
   primalFeasible="0"
   dualFeasible="0"
   writeLevel="3"/>
 <quality
   epInt="1.0000000000000001e-05"
   epRHS="9.9999999999999995e-07"
   maxIntInfeas="0"
   maxPrimalInfeas="0"
   maxX="1"
   maxSlack="1"/>
 <variables>
  <variable name="w1_1" index="18" value="1"/>
  <variable name="w1_5" index="22" value="1"/>
  <variable name="w1_9" index="26" value="1"/>
  <variable name="w1_12" index="29" value="1"/>
  <variable name="w1_13" index="30" value="1"/>
  <variable name="w1_15" index="32" value="1"/>
  <variable name="w2_1" index="35" value="1"/>
  <variable name="w2_5" index="39" value="1"/>
  <variable name="w2_9" index="43" value="1"/>
  <variable name="w2_12" index="46" value="1"/>
  <variable name="w2_13" index="47" value="1"/>
  <variable name="w2_15" index="49" value="1"/>
  <variable name="w3_1" index="52" value="1"/>
  <variable name="w3_5" index="56" value="1"/>
  <variable name="w3_9" index="60" value="1"/>
  <variable name="w3_12" index="63" value="1"/>
  <variable name="w3_13" index="64" value="1"/>
  <variable name="w3_15" index="66" value="1"/>
  <variable name="w8_1" index="137" value="1"/>
  <variable name="w8_5" index="141" value="1"/>
  <variable name="w8_9" index="145" value="1"/>
  <variable name="w8_12" index="148" value="1"/>
  <variable name="w8_13" index="149" value="1"/>
  <variable name="w8_15" index="151" value="1"/>
  <variable name="w9_1" index="154" value="1"/>
  <variable name="w9_5" index="158" value="1"/>
  <variable name="w9_9" index="162" value="1"/>
  <variable name="w9_12" index="165" value="1"/>
  <variable name="w9_13" index="166" value="1"/>
  <variable name="w9_15" index="168" value="1"/>
  <variable name="w16_1" index="273" value="1"/>
  <variable name="w16_5" index="277" value="1"/>
  <variable name="w16_9" index="281" value="1"/>
  <variable name="w16_12" index="284" value="1"/>
  <variable name="w16_13" index="285" value="1"/>
  <variable name="w16_15" index="287" value="1"/>
  <variable name="w19_1" index="324" value="1"/>
  <variable name="w19_5" index="328" value="1"/>
  <variable name="w19_9" index="332" value="1"/>
  <variable name="w19_12" index="335" value="1"/>
  <variable name="w19_13" index="336" value="1"/>
  <variable name="w19_15" index="338" value="1"/>
  <variable name="k1" index="341" value="1"/>
  <variable name="k2" index="342" value="1"/>
  <variable name="k3" index="343" value="1"/>
  <variable name="k8" index="348" value="1"/>
  <variable name="k9" index="349" value="1"/>
  <variable name="k16" index="356" value="1"/>
  <variable name="k19" index="359" value="1"/>
  <variable name="x0_66" index="426" value="1"/>
  <variable name="x1_56" index="516" value="1"/>
  <variable name="x2_77" index="637" value="1"/>
  <variable name="x3_68" index="728" value="1"/>
  <variable name="x4_72" index="832" value="1"/>
  <variable name="x5_10" index="870" value="1"/>
  <variable name="x6_35" index="995" value="1"/>
  <variable name="x7_90" index="1150" value="1"/>
  <variable name="x8_80" index="1240" value="1"/>
  <variable name="x9_85" index="1345" value="1"/>
  <variable name="x10_9" index="1369" value="1"/>
  <variable name="x11_95" index="1555" value="1"/>
  <variable name="x12_92" index="1652" value="1"/>
  <variable name="x13_70" index="1730" value="1"/>
  <variable name="x14_18" index="1778" value="1"/>
  <variable name="x15_29" index="1889" value="1"/>
  <variable name="x16_83" index="2043" value="1"/>
  <variable name="x17_38" index="2098" value="1"/>
  <variable name="x18_16" index="2176" value="1"/>
  <variable name="x19_94" index="2354" value="1"/>
  <variable name="x20_19" index="2379" value="1"/>
  <variable name="x21_58" index="2518" value="1"/>
  <variable name="x22_14" index="2574" value="1"/>
  <variable name="x23_50" index="2710" value="1"/>
  <variable name="x24_84" index="2844" value="1"/>
  <variable name="x25_54" index="2914" value="1"/>
  <variable name="x26_47" index="3007" value="1"/>
  <variable name="x27_91" index="3151" value="1"/>
  <variable name="x28_46" index="3206" value="1"/>
  <variable name="x29_31" index="3291" value="1"/>
  <variable name="x30_88" index="3448" value="1"/>
  <variable name="x31_71" index="3531" value="1"/>
  <variable name="x32_57" index="3617" value="1"/>
  <variable name="x33_65" index="3725" value="1"/>
  <variable name="x34_43" index="3803" value="1"/>
  <variable name="x35_59" index="3919" value="1"/>
  <variable name="x36_60" index="4020" value="1"/>
  <variable name="x37_55" index="4115" value="1"/>
  <variable name="x38_52" index="4212" value="1"/>
  <variable name="x39_97" index="4357" value="1"/>
  <variable name="x40_32" index="4392" value="1"/>
  <variable name="x41_21" index="4481" value="1"/>
  <variable name="x42_87" index="4647" value="1"/>
  <variable name="x43_93" index="4753" value="1"/>
  <variable name="x44_36" index="4796" value="1"/>
  <variable name="x45_78" index="4938" value="1"/>
  <variable name="x46_8" index="4968" value="1"/>
  <variable name="x47_28" index="5088" value="1"/>
  <variable name="x48_75" index="5235" value="1"/>
  <variable name="x49_26" index="5286" value="1"/>
  <variable name="x50_76" index="5436" value="1"/>
  <variable name="x51_33" index="5493" value="1"/>
  <variable name="x52_7" index="5567" value="1"/>
  <variable name="x53_98" index="5758" value="1"/>
  <variable name="x54_96" index="5856" value="1"/>
  <variable name="x55_45" index="5905" value="1"/>
  <variable name="x56_42" index="6002" value="1"/>
  <variable name="x57_34" index="6094" value="1"/>
  <variable name="x58_23" index="6183" value="1"/>
  <variable name="x59_1" index="6261" value="1"/>
  <variable name="x60_62" index="6422" value="1"/>
  <variable name="x61_11" index="6471" value="1"/>
  <variable name="x62_41" index="6601" value="1"/>
  <variable name="x63_24" index="6684" value="1"/>
  <variable name="x64_44" index="6804" value="1"/>
  <variable name="x65_64" index="6924" value="1"/>
  <variable name="x66_61" index="7021" value="1"/>
  <variable name="x67_79" index="7139" value="1"/>
  <variable name="x68_30" index="7190" value="1"/>
  <variable name="x69_5" index="7265" value="1"/>
  <variable name="x70_27" index="7387" value="1"/>
  <variable name="x71_13" index="7473" value="1"/>
  <variable name="x72_89" index="7649" value="1"/>
  <variable name="x73_17" index="7677" value="1"/>
  <variable name="x74_48" index="7808" value="1"/>
  <variable name="x75_2" index="7862" value="1"/>
  <variable name="x76_20" index="7980" value="1"/>
  <variable name="x77_40" index="8100" value="1"/>
  <variable name="x78_67" index="8227" value="1"/>
  <variable name="x79_74" index="8334" value="1"/>
  <variable name="x80_69" index="8429" value="1"/>
  <variable name="x81_25" index="8485" value="1"/>
  <variable name="x82_15" index="8575" value="1"/>
  <variable name="x83_37" index="8697" value="1"/>
  <variable name="x84_81" index="8841" value="1"/>
  <variable name="x85_82" index="8942" value="1"/>
  <variable name="x86_6" index="8966" value="1"/>
  <variable name="x87_53" index="9113" value="1"/>
  <variable name="x88_49" index="9209" value="1"/>
  <variable name="x89_86" index="9346" value="1"/>
  <variable name="x90_12" index="9372" value="1"/>
  <variable name="x91_63" index="9523" value="1"/>
  <variable name="x92_4" index="9564" value="1"/>
  <variable name="x93_73" index="9733" value="1"/>
  <variable name="x94_0" index="9760" value="1"/>
  <variable name="x95_51" index="9911" value="1"/>
  <variable name="x96_39" index="9999" value="1"/>
  <variable name="x97_99" index="10159" value="1"/>
  <variable name="x98_22" index="10182" value="1"/>
  <variable name="x99_3" index="10263" value="1"/>
  <variable name="u1" index="10361" value="1"/>
  <variable name="u5" index="10365" value="1"/>
  <variable name="u9" index="10369" value="1"/>
  <variable name="u12" index="10372" value="1"/>
  <variable name="u13" index="10373" value="1"/>
  <variable name="u15" index="10375" value="1"/>
 </variables>
</CPLEXSolution>
